# Solution for model P0548
# Objective value = 8691
C1001 0
C1002 0
C1003 1
C1004 1
C1005 0
C1006 0
C1007 1
C1008 0
C1009 0
C1010 0
C1011 0
C1012 0
C1013 0
C1014 1
C1015 1
C1016 0
C1017 0
C1018 1
C1019 0
C1020 0
C1021 0
C1022 0
C1023 0
C1024 1
C1025 1
C1026 0
C1027 0
C1028 1
C1029 0
C1030 0
C1031 0
C1032 0
C1033 0
C1034 0
C1035 0
C1036 0
C1037 0
C1038 0
C1039 0
C1040 0
C1041 0
C1042 0
C1043 0
C1044 1
C1045 1
C1046 0
C1047 0
C1048 1
C1049 0
C1050 0
C1051 0
C1052 0
C1053 0
C1054 0
C1055 0
C1056 0
C1057 0
C1058 0
C1059 0
C1060 0
C1061 0
C1062 1
C1063 1
C1064 0
C1065 0
C1066 0
C1067 0
C1068 0
C1069 0
C1070 0
C1071 0
C1072 0
C1073 0
C1074 0
C1075 1
C1076 1
C1077 0
C1078 0
C1079 0
C1080 0
C1081 0
C1082 1
C1083 1
C1084 0
C1085 1
C1086 0
C1087 0
C1088 0
C1089 0
C1090 0
C1091 0
C1092 0
C1093 1
C1094 1
C1095 0
C1096 0
C1097 1
C1098 0
C1099 1
C1100 0
C1101 0
C1102 0
C1103 0
C1104 0
C1105 0
C1106 0
C1107 1
C1108 0
C1109 0
C1110 0
C1111 0
C1112 0
C1113 0
C1114 0
C1115 0
C1116 1
C1117 0
C1118 0
C1119 0
C1120 0
C1121 1
C1122 0
C1123 0
C1124 0
C1125 0
C1126 0
C1127 1
C1128 0
C1129 0
C1130 1
C1131 0
C1132 0
C1133 0
C1134 0
C1135 0
C1136 0
C1137 0
C1138 0
C1139 0
C1140 0
C1141 1
C1142 1
C1143 0
C1144 0
C1145 0
C1146 0
C1147 0
C1148 0
C1149 0
C1150 0
C1151 0
C1152 0
C1153 0
C1154 1
C1155 1
C1156 0
C1157 0
C1158 0
C1159 0
C1160 0
C1161 0
C1162 1
C1163 1
C1164 0
C1165 0
C1166 1
C1167 0
C1168 0
C1169 0
C1170 0
C1171 0
C1172 0
C1173 0
C1174 0
C1175 0
C1176 0
C1177 0
C1178 1
C1179 0
C1180 0
C1181 0
C1182 0
C1183 1
C1184 0
C1185 1
C1186 0
C1187 0
C1188 0
C1189 0
C1190 1
C1191 0
C1192 0
C1193 1
C1194 1
C1195 1
C1196 0
C1197 0
C1198 0
C1199 0
C1200 1
C1201 1
C1202 0
C1203 0
C1204 1
C1205 0
C1206 0
C1207 0
C1208 0
C1209 0
C1210 1
C1211 0
C1212 0
C1213 0
C1214 0
C1215 1
C1216 1
C1217 0
C1218 0
C1219 1
C1220 0
C1221 0
C1222 0
C1223 1
C1224 0
C1225 0
C1226 0
C1227 1
C1228 0
C1229 0
C1230 0
C1231 0
C1232 0
C1233 0
C1234 0
C1235 1
C1236 0
C1237 0
C1238 0
C1239 0
C1240 1
C1241 0
C1242 0
C1243 0
C1244 0
C1245 0
C1246 0
C1247 0
C1248 1
C1249 0
C1250 0
C1251 0
C1252 0
C1253 0
C1254 0
C1255 0
C1256 0
C1257 1
C1258 1
C1259 0
C1260 1
C1261 0
C1262 0
C1263 0
C1264 0
C1265 0
C1266 0
C1267 0
C1268 0
C1269 0
C1270 0
C1271 0
C1272 0
C1273 0
C1274 0
C1275 1
C1276 0
C1277 0
C1278 0
C1279 0
C1280 0
C1281 0
C1282 0
C1283 0
C1284 0
C1285 0
C1286 0
C1287 0
C1288 1
C1289 0
C1290 0
C1291 0
C1292 0
C1293 0
C1294 0
C1295 0
C1296 0
C1297 0
C1298 0
C1299 0
C1300 0
C1301 0
C1302 1
C1303 0
C1304 0
C1305 0
C1306 1
C1307 1
C1308 0
C1309 0
C1310 0
C1311 0
C1312 0
C1313 0
C1314 0
C1315 1
C1316 0
C1317 0
C1318 1
C1319 1
C1320 0
C1321 0
C1322 0
C1323 0
C1324 0
C1325 0
C1326 0
C1327 0
C1328 1
C1329 0
C1330 0
C1331 1
C1332 0
C1333 1
C1334 0
C1335 1
C1336 0
C1337 1
C1338 0
C1339 0
C1340 0
C1341 1
C1342 0
C1343 0
C1344 0
C1345 0
C1346 0
C1347 0
C1348 1
C1349 0
C1350 1
C1351 0
C1352 0
C1353 0
C1354 0
C1355 1
C1356 0
C1357 0
C1358 0
C1359 1
C1360 1
C1361 0
C1362 0
C1363 0
C1364 0
C1365 0
C1366 0
C1367 0
C1368 0
C1369 1
C1370 1
C1371 0
C1372 0
C1373 0
C1374 0
C1375 0
C1376 0
C1377 0
C1378 0
C1379 0
C1380 1
C1381 1
C1382 0
C1383 0
C1384 0
C1385 0
C1386 1
C1387 0
C1388 0
C1389 1
C1390 1
C1391 1
C1392 0
C1393 0
C1394 1
C1395 1
C1396 0
C1397 0
C1398 1
C1399 0
C1400 0
C1401 0
C1402 1
C1403 1
C1404 0
C1405 0
C1406 0
C1407 1
C1408 1
C1409 0
C1410 0
C1411 1
C1412 0
C1413 0
C1414 0
C1415 0
C1416 0
C1417 0
C1418 1
C1419 0
C1420 1
C1421 1
C1422 0
C1423 0
C1424 1
C1425 0
C1426 0
C1427 0
C1428 1
C1429 1
C1430 0
C1431 1
C1432 0
C1433 0
C1434 0
C1435 0
C1436 0
C1437 0
C1438 1
C1439 0
C1440 1
C1441 0
C1442 0
C1443 0
C1444 0
C1445 1
C1446 0
C1447 1
C1448 1
C1449 0
C1450 0
C1451 1
C1452 1
C1453 1
C1454 0
C1455 0
C1456 0
C1457 0
C1458 0
C1459 0
C1460 0
C1461 0
C1462 0
C1463 0
C1464 0
C1465 0
C1466 0
C1467 0
C1468 0
C1469 0
C1470 0
C1471 0
C1472 0
C1473 1
C1474 0
C1475 0
C1476 0
C1477 1
C1478 1
C1479 0
C1480 0
C1481 1
C1482 0
C1483 0
C1484 0
C1485 0
C1486 0
C1487 0
C1488 0
C1489 1
C1490 0
C1491 0
C1492 1
C1493 0
C1494 0
C1495 1
C1496 0
C1497 0
C1498 0
C1499 0
C1500 0
C1501 1
C1502 0
C1503 0
C1504 1
C1505 0
C1506 0
C1507 0
C1508 0
C1509 1
C1510 1
C1511 1
C1512 1
C1513 1
C1514 0
C1515 0
C1516 1
C1517 0
C1518 1
C1519 1
C1520 1
C1521 0
C1522 1
C1523 1
C1524 1
C1525 0
C1526 1
C1527 1
C1528 1
C1529 1
C1530 1
C1531 1
C1532 1
C1533 1
C1534 1
C1535 0
C1536 0
C1537 1
C1538 1
C1539 1
C1540 1
C1541 0
C1542 1
C1543 1
C1544 0
C1545 0
C1546 1
C1547 0
C1548 1
